
-8.92
-8.6
-8.32
-8.24
-7.72
-7.12
-6.32
-4.96
-3.2
-2.16
-1.76
-1.68
-1.56
-1.36
-1.2
-1.16
-1.16
-1.16
-1.08
-1.04
-0.36
-0.32
-0.32
-0.32
-0.32
-0.28
-0.28
-0.28
-0.24
-0.12
-0.12
-0.12
-0.08
-0.04